c Maximum weighted independent set instances generated from exactcolors.
c scalef: 14412641 .
c An independent set of value > 14412641 defines an improving stable sets for coloring.
p edge 149 541
e 1 2
e 1 4
e 1 11
e 1 13
e 1 39
e 1 41
e 1 48
e 1 50
e 2 3
e 2 10
e 2 12
e 2 38
e 2 40
e 2 47
e 2 49
e 3 6
e 3 11
e 3 15
e 3 39
e 3 43
e 3 48
e 3 52
e 4 5
e 4 10
e 4 14
e 4 38
e 4 42
e 4 47
e 4 51
e 5 8
e 5 13
e 5 17
e 5 41
e 5 45
e 5 50
e 5 54
e 6 7
e 6 12
e 6 16
e 6 40
e 6 44
e 6 49
e 6 53
e 7 9
e 7 15
e 7 18
e 7 43
e 7 46
e 7 52
e 7 55
e 8 9
e 8 14
e 8 18
e 8 42
e 8 46
e 8 51
e 8 55
e 9 16
e 9 17
e 9 44
e 9 45
e 9 53
e 9 54
e 10 20
e 10 22
e 10 39
e 10 41
e 10 57
e 10 59
e 11 19
e 11 21
e 11 38
e 11 40
e 11 56
e 11 58
e 12 20
e 12 24
e 12 39
e 12 43
e 12 57
e 12 61
e 13 19
e 13 23
e 13 38
e 13 42
e 13 56
e 13 60
e 14 22
e 14 26
e 14 41
e 14 45
e 14 59
e 14 63
e 15 21
e 15 25
e 15 40
e 15 44
e 15 58
e 15 62
e 16 24
e 16 27
e 16 43
e 16 46
e 16 61
e 16 64
e 17 23
e 17 27
e 17 42
e 17 46
e 17 60
e 17 64
e 18 25
e 18 26
e 18 44
e 18 45
e 18 62
e 18 63
e 19 29
e 19 31
e 19 48
e 19 50
e 19 66
e 19 68
e 20 28
e 20 30
e 20 47
e 20 49
e 20 65
e 20 67
e 21 29
e 21 33
e 21 48
e 21 52
e 21 66
e 21 70
e 22 28
e 22 32
e 22 47
e 22 51
e 22 65
e 22 69
e 23 31
e 23 35
e 23 50
e 23 54
e 23 68
e 23 72
e 24 30
e 24 34
e 24 49
e 24 53
e 24 67
e 24 71
e 25 33
e 25 36
e 25 52
e 25 55
e 25 70
e 25 73
e 26 32
e 26 36
e 26 51
e 26 55
e 26 69
e 26 73
e 27 34
e 27 35
e 27 53
e 27 54
e 27 71
e 27 72
e 28 37
e 28 57
e 28 59
e 28 74
e 29 37
e 29 56
e 29 58
e 29 74
e 30 37
e 30 57
e 30 61
e 30 74
e 31 37
e 31 56
e 31 60
e 31 74
e 32 37
e 32 59
e 32 63
e 32 74
e 33 37
e 33 58
e 33 62
e 33 74
e 34 37
e 34 61
e 34 64
e 34 74
e 35 37
e 35 60
e 35 64
e 35 74
e 36 37
e 36 62
e 36 63
e 36 74
e 37 65
e 37 66
e 37 67
e 37 68
e 37 69
e 37 70
e 37 71
e 37 72
e 37 73
e 38 76
e 38 78
e 38 85
e 38 87
e 39 75
e 39 77
e 39 84
e 39 86
e 40 76
e 40 80
e 40 85
e 40 89
e 41 75
e 41 79
e 41 84
e 41 88
e 42 78
e 42 82
e 42 87
e 42 91
e 43 77
e 43 81
e 43 86
e 43 90
e 44 80
e 44 83
e 44 89
e 44 92
e 45 79
e 45 83
e 45 88
e 45 92
e 46 81
e 46 82
e 46 90
e 46 91
e 47 76
e 47 78
e 47 94
e 47 96
e 48 75
e 48 77
e 48 93
e 48 95
e 49 76
e 49 80
e 49 94
e 49 98
e 50 75
e 50 79
e 50 93
e 50 97
e 51 78
e 51 82
e 51 96
e 51 100
e 52 77
e 52 81
e 52 95
e 52 99
e 53 80
e 53 83
e 53 98
e 53 101
e 54 79
e 54 83
e 54 97
e 54 101
e 55 81
e 55 82
e 55 99
e 55 100
e 56 85
e 56 87
e 56 103
e 56 105
e 57 84
e 57 86
e 57 102
e 57 104
e 58 85
e 58 89
e 58 103
e 58 107
e 59 84
e 59 88
e 59 102
e 59 106
e 60 87
e 60 91
e 60 105
e 60 109
e 61 86
e 61 90
e 61 104
e 61 108
e 62 89
e 62 92
e 62 107
e 62 110
e 63 88
e 63 92
e 63 106
e 63 110
e 64 90
e 64 91
e 64 108
e 64 109
e 65 94
e 65 96
e 65 111
e 66 93
e 66 95
e 66 111
e 67 94
e 67 98
e 67 111
e 68 93
e 68 97
e 68 111
e 69 96
e 69 100
e 69 111
e 70 95
e 70 99
e 70 111
e 71 98
e 71 101
e 71 111
e 72 97
e 72 101
e 72 111
e 73 99
e 73 100
e 73 111
e 74 102
e 74 103
e 74 104
e 74 105
e 74 106
e 74 107
e 74 108
e 74 109
e 74 110
e 75 113
e 75 115
e 75 122
e 75 124
e 76 112
e 76 114
e 76 121
e 76 123
e 77 113
e 77 117
e 77 122
e 77 126
e 78 112
e 78 116
e 78 121
e 78 125
e 79 115
e 79 119
e 79 124
e 79 128
e 80 114
e 80 118
e 80 123
e 80 127
e 81 117
e 81 120
e 81 126
e 81 129
e 82 116
e 82 120
e 82 125
e 82 129
e 83 118
e 83 119
e 83 127
e 83 128
e 84 113
e 84 115
e 84 131
e 84 133
e 85 112
e 85 114
e 85 130
e 85 132
e 86 113
e 86 117
e 86 131
e 86 135
e 87 112
e 87 116
e 87 130
e 87 134
e 88 115
e 88 119
e 88 133
e 88 137
e 89 114
e 89 118
e 89 132
e 89 136
e 90 117
e 90 120
e 90 135
e 90 138
e 91 116
e 91 120
e 91 134
e 91 138
e 92 118
e 92 119
e 92 136
e 92 137
e 93 122
e 93 124
e 93 140
e 93 142
e 94 121
e 94 123
e 94 139
e 94 141
e 95 122
e 95 126
e 95 140
e 95 144
e 96 121
e 96 125
e 96 139
e 96 143
e 97 124
e 97 128
e 97 142
e 97 146
e 98 123
e 98 127
e 98 141
e 98 145
e 99 126
e 99 129
e 99 144
e 99 147
e 100 125
e 100 129
e 100 143
e 100 147
e 101 127
e 101 128
e 101 145
e 101 146
e 102 131
e 102 133
e 102 148
e 103 130
e 103 132
e 103 148
e 104 131
e 104 135
e 104 148
e 105 130
e 105 134
e 105 148
e 106 133
e 106 137
e 106 148
e 107 132
e 107 136
e 107 148
e 108 135
e 108 138
e 108 148
e 109 134
e 109 138
e 109 148
e 110 136
e 110 137
e 110 148
e 111 139
e 111 140
e 111 141
e 111 142
e 111 143
e 111 144
e 111 145
e 111 146
e 111 147
e 112 149
e 113 149
e 114 149
e 115 149
e 116 149
e 117 149
e 118 149
e 119 149
e 120 149
e 121 149
e 122 149
e 123 149
e 124 149
e 125 149
e 126 149
e 127 149
e 128 149
e 129 149
e 130 149
e 131 149
e 132 149
e 133 149
e 134 149
e 135 149
e 136 149
e 137 149
e 138 149
e 139 149
e 140 149
e 141 149
e 142 149
e 143 149
e 144 149
e 145 149
e 146 149
e 147 149
e 148 149
n 1 480018
n 2 480018
n 3 480018
n 4 480018
n 5 480018
n 6 480018
n 7 480018
n 8 480018
n 9 480018
n 10 384014
n 11 384014
n 12 384014
n 13 384014
n 14 384014
n 15 384014
n 16 384014
n 17 384014
n 18 384014
n 19 307211
n 20 307211
n 21 307211
n 22 307211
n 23 307211
n 24 307211
n 25 307211
n 26 307211
n 27 307211
n 28 245769
n 29 245769
n 30 245769
n 31 245769
n 32 245769
n 33 245769
n 34 245769
n 35 245769
n 36 245769
n 37 983078
n 38 337223
n 39 337223
n 40 337223
n 41 337223
n 42 337223
n 43 337223
n 44 337223
n 45 337223
n 46 337223
n 47 269779
n 48 269779
n 49 269779
n 50 269779
n 51 269779
n 52 269779
n 53 269779
n 54 269779
n 55 269779
n 56 215823
n 57 215823
n 58 215823
n 59 215823
n 60 215823
n 61 215823
n 62 215823
n 63 215823
n 64 215823
n 65 172658
n 66 172658
n 67 172658
n 68 172658
n 69 172658
n 70 172658
n 71 172658
n 72 172658
n 73 172658
n 74 690634
n 75 236907
n 76 236907
n 77 236907
n 78 236907
n 79 236907
n 80 236907
n 81 236907
n 82 236907
n 83 236907
n 84 189525
n 85 189525
n 86 189525
n 87 189525
n 88 189525
n 89 189525
n 90 189525
n 91 189525
n 92 189525
n 93 151620
n 94 151620
n 95 151620
n 96 151620
n 97 151620
n 98 151620
n 99 151620
n 100 151620
n 101 151620
n 102 121296
n 103 121296
n 104 121296
n 105 121296
n 106 121296
n 107 121296
n 108 121296
n 109 121296
n 110 121296
n 111 485186
n 112 166432
n 113 166432
n 114 166432
n 115 166432
n 116 166432
n 117 166432
n 118 166432
n 119 166432
n 120 166432
n 121 133146
n 122 133146
n 123 133146
n 124 133146
n 125 133146
n 126 133146
n 127 133146
n 128 133146
n 129 133146
n 130 106517
n 131 106517
n 132 106517
n 133 106517
n 134 106517
n 135 106517
n 136 106517
n 137 106517
n 138 106517
n 139 85213
n 140 85213
n 141 85213
n 142 85213
n 143 85213
n 144 85213
n 145 85213
n 146 85213
n 147 85213
n 148 340854
n 149 1965238
